137
100000
13773
3277
7166
20084
3306
1328
18470
3731
2693
300
8898
1152
22267
881
1246
21471
15372
24946
15152
15921
15034
8097
18044
12955
12485
23992
15466
7782
1615
336
642
15206
16382
5241
17653
16209
21792
6685
16033
7269
1932
9617
2709
19777
21896
2971
23320
5347
2688
22774
18790
1942
3458
24704
13351
5459
13471
15392
71
23652
13154
5259
13700
23256
3445
6057
17887
8452
18678
1630
9112
23609
4747
2209
2491
13415
9152
9701
1587
15977
54
3996
20866
7375
9197
1
6904
7188
2459
15151
24104
9599
19098
10927
12537
13342
3722
20982
17115
7016
770
1650
2975
5633
453
18846
6754
13264
561
7311
2021
20537
9100
24398
13582
16600
18135
4705
3816
1220
24849
13858
9204
21276
9074
11825
7824
5009
22542
6883
2271
16540
16430
18642
23778
14074
14766
